c Reduced graph for 4-FullIns_5_3 generated by Cyril Grelier
p edge 122 961
e 1 10
e 1 13
e 1 15
e 1 26
e 1 27
e 1 28
e 1 29
e 1 30
e 1 37
e 1 38
e 1 39
e 1 49
e 1 50
e 1 51
e 1 52
e 1 53
e 1 55
e 1 56
e 1 57
e 1 58
e 1 59
e 1 68
e 1 69
e 1 70
e 1 71
e 1 72
e 1 74
e 1 83
e 1 84
e 1 85
e 1 86
e 1 87
e 1 88
e 1 89
e 1 90
e 1 91
e 1 96
e 1 97
e 1 98
e 1 99
e 1 100
e 1 101
e 1 102
e 1 103
e 1 104
e 1 105
e 1 106
e 1 107
e 1 108
e 1 109
e 1 110
e 1 111
e 1 112
e 1 113
e 1 114
e 1 115
e 1 116
e 1 117
e 1 118
e 1 119
e 1 120
e 1 121
e 1 122
e 2 11
e 2 14
e 2 21
e 2 22
e 2 23
e 2 24
e 2 25
e 2 36
e 2 37
e 2 39
e 2 44
e 2 45
e 2 46
e 2 47
e 2 48
e 2 54
e 2 55
e 2 56
e 2 57
e 2 58
e 2 59
e 2 62
e 2 63
e 2 64
e 2 65
e 2 73
e 2 74
e 2 75
e 2 76
e 2 77
e 2 78
e 2 79
e 2 80
e 2 81
e 2 82
e 2 87
e 2 88
e 2 89
e 2 90
e 2 91
e 2 92
e 2 93
e 2 94
e 2 95
e 2 96
e 2 99
e 2 100
e 2 101
e 2 102
e 2 105
e 2 106
e 2 107
e 2 108
e 2 109
e 2 110
e 2 111
e 2 112
e 2 113
e 2 115
e 2 116
e 2 117
e 2 118
e 3 12
e 3 16
e 3 17
e 3 18
e 3 19
e 3 20
e 3 31
e 3 32
e 3 33
e 3 34
e 3 35
e 3 36
e 3 38
e 3 44
e 3 45
e 3 46
e 3 47
e 3 48
e 3 49
e 3 50
e 3 51
e 3 52
e 3 53
e 3 54
e 3 60
e 3 61
e 3 62
e 3 63
e 3 64
e 3 65
e 3 66
e 3 67
e 3 68
e 3 69
e 3 70
e 3 71
e 3 72
e 3 74
e 3 87
e 3 88
e 3 89
e 3 90
e 3 91
e 3 92
e 3 93
e 3 94
e 3 95
e 3 96
e 3 97
e 3 98
e 3 99
e 3 100
e 3 101
e 3 102
e 3 103
e 3 104
e 3 115
e 3 116
e 3 117
e 3 118
e 4 5
e 4 6
e 4 7
e 4 8
e 4 9
e 4 16
e 4 17
e 4 18
e 4 19
e 4 20
e 4 21
e 4 22
e 4 23
e 4 24
e 4 25
e 4 26
e 4 27
e 4 28
e 4 29
e 4 30
e 4 40
e 4 41
e 4 44
e 4 45
e 4 46
e 4 47
e 4 48
e 4 49
e 4 50
e 4 51
e 4 52
e 4 53
e 4 55
e 4 56
e 4 57
e 4 58
e 4 59
e 4 60
e 4 61
e 4 75
e 4 76
e 4 83
e 4 84
e 4 87
e 4 88
e 4 89
e 4 90
e 4 91
e 4 92
e 4 93
e 4 97
e 4 98
e 4 106
e 4 107
e 4 115
e 4 116
e 5 6
e 5 7
e 5 8
e 5 9
e 5 12
e 5 14
e 5 15
e 5 17
e 5 18
e 5 19
e 5 20
e 5 22
e 5 23
e 5 24
e 5 25
e 5 27
e 5 28
e 5 29
e 5 30
e 5 36
e 5 38
e 5 39
e 5 45
e 5 46
e 5 47
e 5 48
e 5 50
e 5 51
e 5 52
e 5 53
e 5 56
e 5 57
e 5 58
e 5 59
e 5 74
e 5 88
e 5 89
e 5 90
e 5 91
e 6 7
e 6 8
e 6 9
e 6 12
e 6 14
e 6 15
e 6 16
e 6 18
e 6 19
e 6 20
e 6 21
e 6 23
e 6 24
e 6 25
e 6 26
e 6 28
e 6 29
e 6 30
e 6 36
e 6 38
e 6 39
e 6 44
e 6 46
e 6 47
e 6 48
e 6 49
e 6 51
e 6 52
e 6 53
e 6 55
e 6 57
e 6 58
e 6 59
e 6 74
e 6 87
e 6 89
e 6 90
e 6 91
e 7 8
e 7 9
e 7 12
e 7 14
e 7 15
e 7 16
e 7 17
e 7 19
e 7 20
e 7 21
e 7 22
e 7 24
e 7 25
e 7 26
e 7 27
e 7 29
e 7 30
e 7 36
e 7 38
e 7 39
e 7 44
e 7 45
e 7 47
e 7 48
e 7 49
e 7 50
e 7 52
e 7 53
e 7 55
e 7 56
e 7 58
e 7 59
e 7 74
e 7 87
e 7 88
e 7 90
e 7 91
e 8 9
e 8 12
e 8 14
e 8 15
e 8 16
e 8 17
e 8 18
e 8 20
e 8 21
e 8 22
e 8 23
e 8 25
e 8 26
e 8 27
e 8 28
e 8 30
e 8 36
e 8 38
e 8 39
e 8 44
e 8 45
e 8 46
e 8 48
e 8 49
e 8 50
e 8 51
e 8 53
e 8 55
e 8 56
e 8 57
e 8 59
e 8 74
e 8 87
e 8 88
e 8 89
e 8 91
e 9 12
e 9 14
e 9 15
e 9 16
e 9 17
e 9 18
e 9 19
e 9 21
e 9 22
e 9 23
e 9 24
e 9 26
e 9 27
e 9 28
e 9 29
e 9 36
e 9 38
e 9 39
e 9 44
e 9 45
e 9 46
e 9 47
e 9 49
e 9 50
e 9 51
e 9 52
e 9 55
e 9 56
e 9 57
e 9 58
e 9 74
e 9 87
e 9 88
e 9 89
e 9 90
e 10 11
e 10 14
e 10 21
e 10 22
e 10 23
e 10 24
e 10 25
e 10 36
e 10 44
e 10 45
e 10 46
e 10 47
e 10 48
e 10 54
e 10 62
e 10 63
e 10 64
e 10 65
e 10 73
e 10 75
e 10 76
e 10 77
e 10 78
e 10 79
e 10 80
e 10 81
e 10 82
e 10 92
e 10 93
e 10 94
e 10 95
e 11 12
e 11 16
e 11 17
e 11 18
e 11 19
e 11 20
e 11 31
e 11 32
e 11 33
e 11 34
e 11 35
e 11 38
e 11 49
e 11 50
e 11 51
e 11 52
e 11 53
e 11 60
e 11 61
e 11 66
e 11 67
e 11 68
e 11 69
e 11 70
e 11 71
e 11 72
e 11 97
e 11 98
e 11 103
e 11 104
e 12 13
e 12 21
e 12 22
e 12 23
e 12 24
e 12 25
e 12 26
e 12 27
e 12 28
e 12 29
e 12 30
e 12 37
e 12 40
e 12 41
e 12 55
e 12 56
e 12 57
e 12 58
e 12 59
e 12 75
e 12 76
e 12 83
e 12 84
e 12 106
e 12 107
e 13 16
e 13 17
e 13 18
e 13 19
e 13 20
e 13 31
e 13 32
e 13 33
e 13 34
e 13 35
e 13 36
e 13 44
e 13 45
e 13 46
e 13 47
e 13 48
e 13 54
e 13 60
e 13 61
e 13 62
e 13 63
e 13 64
e 13 65
e 13 66
e 13 67
e 13 92
e 13 93
e 13 94
e 13 95
e 14 16
e 14 17
e 14 18
e 14 19
e 14 20
e 14 26
e 14 27
e 14 28
e 14 29
e 14 30
e 14 40
e 14 41
e 14 49
e 14 50
e 14 51
e 14 52
e 14 53
e 14 60
e 14 61
e 14 83
e 14 84
e 14 97
e 14 98
e 15 16
e 15 17
e 15 18
e 15 19
e 15 20
e 15 21
e 15 22
e 15 23
e 15 24
e 15 25
e 15 40
e 15 41
e 15 44
e 15 45
e 15 46
e 15 47
e 15 48
e 15 60
e 15 61
e 15 75
e 15 76
e 15 92
e 15 93
e 16 22
e 16 23
e 16 24
e 16 25
e 16 27
e 16 28
e 16 29
e 16 30
e 16 37
e 16 39
e 16 56
e 16 57
e 16 58
e 16 59
e 17 21
e 17 23
e 17 24
e 17 25
e 17 26
e 17 28
e 17 29
e 17 30
e 17 37
e 17 39
e 17 55
e 17 57
e 17 58
e 17 59
e 18 21
e 18 22
e 18 24
e 18 25
e 18 26
e 18 27
e 18 29
e 18 30
e 18 37
e 18 39
e 18 55
e 18 56
e 18 58
e 18 59
e 19 21
e 19 22
e 19 23
e 19 25
e 19 26
e 19 27
e 19 28
e 19 30
e 19 37
e 19 39
e 19 55
e 19 56
e 19 57
e 19 59
e 20 21
e 20 22
e 20 23
e 20 24
e 20 26
e 20 27
e 20 28
e 20 29
e 20 37
e 20 39
e 20 55
e 20 56
e 20 57
e 20 58
e 21 27
e 21 28
e 21 29
e 21 30
e 21 38
e 21 50
e 21 51
e 21 52
e 21 53
e 22 26
e 22 28
e 22 29
e 22 30
e 22 38
e 22 49
e 22 51
e 22 52
e 22 53
e 23 26
e 23 27
e 23 29
e 23 30
e 23 38
e 23 49
e 23 50
e 23 52
e 23 53
e 24 26
e 24 27
e 24 28
e 24 30
e 24 38
e 24 49
e 24 50
e 24 51
e 24 53
e 25 26
e 25 27
e 25 28
e 25 29
e 25 38
e 25 49
e 25 50
e 25 51
e 25 52
e 26 36
e 26 45
e 26 46
e 26 47
e 26 48
e 27 36
e 27 44
e 27 46
e 27 47
e 27 48
e 28 36
e 28 44
e 28 45
e 28 47
e 28 48
e 29 36
e 29 44
e 29 45
e 29 46
e 29 48
e 30 36
e 30 44
e 30 45
e 30 46
e 30 47
e 31 32
e 31 33
e 31 34
e 31 35
e 31 37
e 31 62
e 31 63
e 31 64
e 31 65
e 31 69
e 31 70
e 31 71
e 31 72
e 31 99
e 31 100
e 31 101
e 31 102
e 32 33
e 32 34
e 32 35
e 32 37
e 32 54
e 32 63
e 32 64
e 32 65
e 32 68
e 32 70
e 32 71
e 32 72
e 32 96
e 32 100
e 32 101
e 32 102
e 33 34
e 33 35
e 33 37
e 33 54
e 33 62
e 33 64
e 33 65
e 33 68
e 33 69
e 33 71
e 33 72
e 33 96
e 33 99
e 33 101
e 33 102
e 34 35
e 34 37
e 34 54
e 34 62
e 34 63
e 34 65
e 34 68
e 34 69
e 34 70
e 34 72
e 34 96
e 34 99
e 34 100
e 34 102
e 35 37
e 35 54
e 35 62
e 35 63
e 35 64
e 35 68
e 35 69
e 35 70
e 35 71
e 35 96
e 35 99
e 35 100
e 35 101
e 36 40
e 36 41
e 36 83
e 36 84
e 37 60
e 37 61
e 37 66
e 37 67
e 38 40
e 38 41
e 38 75
e 38 76
e 39 40
e 39 41
e 39 60
e 39 61
e 40 43
e 40 67
e 40 74
e 40 78
e 40 86
e 40 95
e 40 104
e 40 109
e 40 118
e 41 42
e 41 66
e 41 74
e 41 77
e 41 85
e 41 94
e 41 103
e 41 108
e 41 117
e 42 43
e 42 61
e 42 67
e 42 76
e 42 78
e 42 84
e 42 86
e 42 93
e 42 95
e 42 98
e 42 104
e 42 107
e 42 109
e 42 116
e 42 118
e 43 60
e 43 66
e 43 75
e 43 77
e 43 83
e 43 85
e 43 92
e 43 94
e 43 97
e 43 103
e 43 106
e 43 108
e 43 115
e 43 117
e 54 69
e 54 70
e 54 71
e 54 72
e 60 78
e 60 86
e 60 109
e 61 77
e 61 85
e 61 108
e 62 68
e 62 70
e 62 71
e 62 72
e 63 68
e 63 69
e 63 71
e 63 72
e 64 68
e 64 69
e 64 70
e 64 72
e 65 68
e 65 69
e 65 70
e 65 71
e 66 76
e 66 78
e 66 84
e 66 86
e 66 107
e 66 109
e 67 75
e 67 77
e 67 83
e 67 85
e 67 106
e 67 108
e 73 79
e 73 80
e 73 81
e 73 82
e 73 110
e 73 111
e 73 112
e 73 113
e 75 86
e 75 104
e 76 85
e 76 103
e 77 84
e 77 86
e 77 98
e 77 104
e 78 83
e 78 85
e 78 97
e 78 103
e 79 80
e 79 81
e 79 82
e 79 105
e 79 111
e 79 112
e 79 113
e 80 81
e 80 82
e 80 105
e 80 110
e 80 112
e 80 113
e 81 82
e 81 105
e 81 110
e 81 111
e 81 113
e 82 105
e 82 110
e 82 111
e 82 112
e 83 95
e 84 94
e 85 93
e 85 95
e 86 92
e 86 94
e 114 119
e 114 120
e 114 121
e 114 122
e 119 120
e 119 121
e 119 122
e 120 121
e 120 122
e 121 122
